NAME: Cincinnati
COMMENT: 10 locations in Cincinnati
DIMENSION: 10
EDGE_WEIGHT_TYPE: EUC_2D
NODE_COORD_SECTION
1 39126613.000000 -84546819.000000
2 39111949.000000 -84513860.000000
3 39129582.000000 -84515401.000000
4 39066962.000000 -84506586.000000
5 39109642.000000 -84507446.000000
6 39096516.000000 -84505005.000000
7 39113099.000000 -84490872.000000
8 39098442.000000 -84517418.000000
9 39108023.000000 -84509824.000000
10 39171176.000000 -84497538.000000
EOF
